# Solution for model count
# Objective value = 9
z#1 0
z#2 0
z#3 0
z#4 1
z#5 0
z#6 0
z#7 1
z#8 0
z#9 0
z#10 0
z#11 1
z#12 1
z#13 1
z#14 0
z#15 1
z#16 0
z#17 1
z#18 0
z#19 0
z#20 0
z#21 0
z#22 1
z#23 0
z#24 1
x#24 1341
x#23 0
x#22 3336
x#21 0
x#20 0
x#19 0
x#18 0
x#17 64
x#16 0
x#15 2044
x#14 0
x#13 944
x#12 277
x#11 721
x#10 0
x#9 0
x#8 0
x#7 485
x#6 0
x#5 0
x#4 788
x#3 0
x#2 0
x#1 0
